35730 39356 
34887 40016 
35122 39807 
35211 39769 
34568 40245 
34185 40477 
35522 39510 
34679 40170 
34745 40106 
35003 39923 
34360 40399 
33666 40773 
33977 40631 
33841 40695 
33458 40927 
33013 41103 
33181 41046 
33079 41081 
32681 41293 
32805 41257 
32871 41235 
32405 41382 
